<number of tasks>
20

<cycle time>
1000

<order strength>
0,284


<task times>
1 22
2 121
3 92
4 478
5 78
6 482
7 93
8 156
9 53
10 144
11 45
12 146
13 118
14 81
15 306
16 169
17 353
18 46
19 143
20 564

<precedence relations>
1,11
2,5
2,6
2,7
2,9
2,10
4,8
5,11
6,11
7,11
8,12
11,13
11,14
11,15
11,16
12,17
12,18
14,19
17,20

<end>
